$rungauss
%nprocshared=16
%mem=200gb

#n CCSD(T)/aug-cc-pVTZ Opt

 Title

0 1
Cl 
Cl  1 B1
Variables:
B1        2.01200
